Minimize
 obj: 0 X_0_1
Subject To
 out_0:
  + 1 X_0_1 + 1 X_0_2 + 1 X_0_3 + 1 X_0_4
  = 1
 in_0:
  + 1 X_1_0 + 1 X_2_0 + 1 X_3_0 + 1 X_4_0
  = 1
 out_1:
  + 1 X_1_0 + 1 X_1_2 + 1 X_1_3 + 1 X_1_4
  = 1
 in_1:
  + 1 X_0_1 + 1 X_2_1 + 1 X_3_1 + 1 X_4_1
  = 1
 out_2:
  + 1 X_2_0 + 1 X_2_1 + 1 X_2_3 + 1 X_2_4
  = 1
 in_2:
  + 1 X_0_2 + 1 X_1_2 + 1 X_3_2 + 1 X_4_2
  = 1
 out_3:
  + 1 X_3_0 + 1 X_3_1 + 1 X_3_2 + 1 X_3_4
  = 1
 in_3:
  + 1 X_0_3 + 1 X_1_3 + 1 X_2_3 + 1 X_4_3
  = 1
 out_4:
  + 1 X_4_0 + 1 X_4_1 + 1 X_4_2 + 1 X_4_3
  = 1
 in_4:
  + 1 X_0_4 + 1 X_1_4 + 1 X_2_4 + 1 X_3_4
  = 1
 mtz_1_2:
  + 1 U1 - 1 U2 + 4 X_1_2
  <= 3
 mtz_1_3:
  + 1 U1 - 1 U3 + 4 X_1_3
  <= 3
 mtz_1_4:
  + 1 U1 - 1 U4 + 4 X_1_4
  <= 3
 mtz_2_1:
  + 1 U2 - 1 U1 + 4 X_2_1
  <= 3
 mtz_2_3:
  + 1 U2 - 1 U3 + 4 X_2_3
  <= 3
 mtz_2_4:
  + 1 U2 - 1 U4 + 4 X_2_4
  <= 3
 mtz_3_1:
  + 1 U3 - 1 U1 + 4 X_3_1
  <= 3
 mtz_3_2:
  + 1 U3 - 1 U2 + 4 X_3_2
  <= 3
 mtz_3_4:
  + 1 U3 - 1 U4 + 4 X_3_4
  <= 3
 mtz_4_1:
  + 1 U4 - 1 U1 + 4 X_4_1
  <= 3
 mtz_4_2:
  + 1 U4 - 1 U2 + 4 X_4_2
  <= 3
 mtz_4_3:
  + 1 U4 - 1 U3 + 4 X_4_3
  <= 3
 obj1:
  + 482 X_0_1 + 597 X_0_2 + 187 X_0_3 + 407 X_0_4 + 482 X_1_0 + 249 X_1_2 + 426 X_1_3 + 580 X_1_4
  + 597 X_2_0 + 249 X_2_1 + 463 X_2_3 + 804 X_2_4 + 187 X_3_0 + 426 X_3_1 + 463 X_3_2 + 567 X_3_4
  + 407 X_4_0 + 580 X_4_1 + 804 X_4_2 + 567 X_4_3
  <= 1
 obj2:
  + 800 X_0_1 + 589 X_0_2 + 715 X_0_3 + 510 X_0_4 + 800 X_1_0 + 734 X_1_2 + 359 X_1_3 + 633 X_1_4
  + 589 X_2_0 + 734 X_2_1 + 409 X_2_3 + 118 X_2_4 + 715 X_3_0 + 359 X_3_1 + 409 X_3_2 + 337 X_3_4
  + 510 X_4_0 + 633 X_4_1 + 118 X_4_2 + 337 X_4_3
  <= 2
 obj3:
  + 101 X_0_1 + 748 X_0_2 + 684 X_0_3 + 609 X_0_4 + 101 X_1_0 + 827 X_1_2 + 784 X_1_3 + 711 X_1_4
  + 748 X_2_0 + 827 X_2_1 + 414 X_2_3 + 479 X_2_4 + 684 X_3_0 + 784 X_3_1 + 414 X_3_2 + 104 X_3_4
  + 609 X_4_0 + 711 X_4_1 + 479 X_4_2 + 104 X_4_3
  <= 3
 obj4:
  + 263 X_0_1 + 884 X_0_2 + 485 X_0_3 + 528 X_0_4 + 263 X_1_0 + 648 X_1_2 + 519 X_1_3 + 496 X_1_4
  + 884 X_2_0 + 648 X_2_1 + 763 X_2_3 + 639 X_2_4 + 485 X_3_0 + 519 X_3_1 + 763 X_3_2 + 129 X_3_4
  + 528 X_4_0 + 496 X_4_1 + 639 X_4_2 + 129 X_4_3
  <= 4
 obj5:
  + 608 X_0_1 + 730 X_0_2 + 179 X_0_3 + 214 X_0_4 + 608 X_1_0 + 337 X_1_2 + 772 X_1_3 + 619 X_1_4
  + 730 X_2_0 + 337 X_2_1 + 846 X_2_3 + 634 X_2_4 + 179 X_3_0 + 772 X_3_1 + 846 X_3_2 + 226 X_3_4
  + 214 X_4_0 + 619 X_4_1 + 634 X_4_2 + 226 X_4_3
  <= 5
 obj6:
  + 773 X_0_1 + 919 X_0_2 + 271 X_0_3 + 656 X_0_4 + 773 X_1_0 + 669 X_1_2 + 557 X_1_3 + 1070 X_1_4
  + 919 X_2_0 + 669 X_2_1 + 894 X_2_3 + 719 X_2_4 + 271 X_3_0 + 557 X_3_1 + 894 X_3_2 + 848 X_3_4
  + 656 X_4_0 + 1070 X_4_1 + 719 X_4_2 + 848 X_4_3
  <= 6
 obj7:
  + 350 X_0_1 + 258 X_0_2 + 940 X_0_3 + 580 X_0_4 + 350 X_1_0 + 508 X_1_2 + 760 X_1_3 + 247 X_1_4
  + 258 X_2_0 + 508 X_2_1 + 854 X_2_3 + 756 X_2_4 + 940 X_3_0 + 760 X_3_1 + 854 X_3_2 + 832 X_3_4
  + 580 X_4_0 + 247 X_4_1 + 756 X_4_2 + 832 X_4_3
  <= 7
Bounds
 1 <= U1 <= 4
 1 <= U2 <= 4
 1 <= U3 <= 4
 1 <= U4 <= 4
Binary
 X_0_1
 X_0_2
 X_0_3
 X_0_4
 X_1_0
 X_1_2
 X_1_3
 X_1_4
 X_2_0
 X_2_1
 X_2_3
 X_2_4
 X_3_0
 X_3_1
 X_3_2
 X_3_4
 X_4_0
 X_4_1
 X_4_2
 X_4_3
End
